60

 0   1   2   3   4   5   6   7   8   9   1   2   3   4   5   6   7   8   9  10   2   3   4   5   6   7   8   9  10  11   3   4   5   6   7   8   9  10  11  12   4   5   6   7   8   9  10  11  12  13   5   6   7   8   9  10  11  12  13  14  
 1   0   1   2   3   4   5   6   7   8   2   1   2   3   4   5   6   7   8   9   3   2   3   4   5   6   7   8   9  10   4   3   4   5   6   7   8   9  10  11   5   4   5   6   7   8   9  10  11  12   6   5   6   7   8   9  10  11  12  13  
 2   1   0   1   2   3   4   5   6   7   3   2   1   2   3   4   5   6   7   8   4   3   2   3   4   5   6   7   8   9   5   4   3   4   5   6   7   8   9  10   6   5   4   5   6   7   8   9  10  11   7   6   5   6   7   8   9  10  11  12  
 3   2   1   0   1   2   3   4   5   6   4   3   2   1   2   3   4   5   6   7   5   4   3   2   3   4   5   6   7   8   6   5   4   3   4   5   6   7   8   9   7   6   5   4   5   6   7   8   9  10   8   7   6   5   6   7   8   9  10  11  
 4   3   2   1   0   1   2   3   4   5   5   4   3   2   1   2   3   4   5   6   6   5   4   3   2   3   4   5   6   7   7   6   5   4   3   4   5   6   7   8   8   7   6   5   4   5   6   7   8   9   9   8   7   6   5   6   7   8   9  10  
 5   4   3   2   1   0   1   2   3   4   6   5   4   3   2   1   2   3   4   5   7   6   5   4   3   2   3   4   5   6   8   7   6   5   4   3   4   5   6   7   9   8   7   6   5   4   5   6   7   8  10   9   8   7   6   5   6   7   8   9  
 6   5   4   3   2   1   0   1   2   3   7   6   5   4   3   2   1   2   3   4   8   7   6   5   4   3   2   3   4   5   9   8   7   6   5   4   3   4   5   6  10   9   8   7   6   5   4   5   6   7  11  10   9   8   7   6   5   6   7   8  
 7   6   5   4   3   2   1   0   1   2   8   7   6   5   4   3   2   1   2   3   9   8   7   6   5   4   3   2   3   4  10   9   8   7   6   5   4   3   4   5  11  10   9   8   7   6   5   4   5   6  12  11  10   9   8   7   6   5   6   7  
 8   7   6   5   4   3   2   1   0   1   9   8   7   6   5   4   3   2   1   2  10   9   8   7   6   5   4   3   2   3  11  10   9   8   7   6   5   4   3   4  12  11  10   9   8   7   6   5   4   5  13  12  11  10   9   8   7   6   5   6  
 9   8   7   6   5   4   3   2   1   0  10   9   8   7   6   5   4   3   2   1  11  10   9   8   7   6   5   4   3   2  12  11  10   9   8   7   6   5   4   3  13  12  11  10   9   8   7   6   5   4  14  13  12  11  10   9   8   7   6   5  
 1   2   3   4   5   6   7   8   9  10   0   1   2   3   4   5   6   7   8   9   1   2   3   4   5   6   7   8   9  10   2   3   4   5   6   7   8   9  10  11   3   4   5   6   7   8   9  10  11  12   4   5   6   7   8   9  10  11  12  13  
 2   1   2   3   4   5   6   7   8   9   1   0   1   2   3   4   5   6   7   8   2   1   2   3   4   5   6   7   8   9   3   2   3   4   5   6   7   8   9  10   4   3   4   5   6   7   8   9  10  11   5   4   5   6   7   8   9  10  11  12  
 3   2   1   2   3   4   5   6   7   8   2   1   0   1   2   3   4   5   6   7   3   2   1   2   3   4   5   6   7   8   4   3   2   3   4   5   6   7   8   9   5   4   3   4   5   6   7   8   9  10   6   5   4   5   6   7   8   9  10  11  
 4   3   2   1   2   3   4   5   6   7   3   2   1   0   1   2   3   4   5   6   4   3   2   1   2   3   4   5   6   7   5   4   3   2   3   4   5   6   7   8   6   5   4   3   4   5   6   7   8   9   7   6   5   4   5   6   7   8   9  10  
 5   4   3   2   1   2   3   4   5   6   4   3   2   1   0   1   2   3   4   5   5   4   3   2   1   2   3   4   5   6   6   5   4   3   2   3   4   5   6   7   7   6   5   4   3   4   5   6   7   8   8   7   6   5   4   5   6   7   8   9  
 6   5   4   3   2   1   2   3   4   5   5   4   3   2   1   0   1   2   3   4   6   5   4   3   2   1   2   3   4   5   7   6   5   4   3   2   3   4   5   6   8   7   6   5   4   3   4   5   6   7   9   8   7   6   5   4   5   6   7   8  
 7   6   5   4   3   2   1   2   3   4   6   5   4   3   2   1   0   1   2   3   7   6   5   4   3   2   1   2   3   4   8   7   6   5   4   3   2   3   4   5   9   8   7   6   5   4   3   4   5   6  10   9   8   7   6   5   4   5   6   7  
 8   7   6   5   4   3   2   1   2   3   7   6   5   4   3   2   1   0   1   2   8   7   6   5   4   3   2   1   2   3   9   8   7   6   5   4   3   2   3   4  10   9   8   7   6   5   4   3   4   5  11  10   9   8   7   6   5   4   5   6  
 9   8   7   6   5   4   3   2   1   2   8   7   6   5   4   3   2   1   0   1   9   8   7   6   5   4   3   2   1   2  10   9   8   7   6   5   4   3   2   3  11  10   9   8   7   6   5   4   3   4  12  11  10   9   8   7   6   5   4   5  
10   9   8   7   6   5   4   3   2   1   9   8   7   6   5   4   3   2   1   0  10   9   8   7   6   5   4   3   2   1  11  10   9   8   7   6   5   4   3   2  12  11  10   9   8   7   6   5   4   3  13  12  11  10   9   8   7   6   5   4  
 2   3   4   5   6   7   8   9  10  11   1   2   3   4   5   6   7   8   9  10   0   1   2   3   4   5   6   7   8   9   1   2   3   4   5   6   7   8   9  10   2   3   4   5   6   7   8   9  10  11   3   4   5   6   7   8   9  10  11  12  
 3   2   3   4   5   6   7   8   9  10   2   1   2   3   4   5   6   7   8   9   1   0   1   2   3   4   5   6   7   8   2   1   2   3   4   5   6   7   8   9   3   2   3   4   5   6   7   8   9  10   4   3   4   5   6   7   8   9  10  11  
 4   3   2   3   4   5   6   7   8   9   3   2   1   2   3   4   5   6   7   8   2   1   0   1   2   3   4   5   6   7   3   2   1   2   3   4   5   6   7   8   4   3   2   3   4   5   6   7   8   9   5   4   3   4   5   6   7   8   9  10  
 5   4   3   2   3   4   5   6   7   8   4   3   2   1   2   3   4   5   6   7   3   2   1   0   1   2   3   4   5   6   4   3   2   1   2   3   4   5   6   7   5   4   3   2   3   4   5   6   7   8   6   5   4   3   4   5   6   7   8   9  
 6   5   4   3   2   3   4   5   6   7   5   4   3   2   1   2   3   4   5   6   4   3   2   1   0   1   2   3   4   5   5   4   3   2   1   2   3   4   5   6   6   5   4   3   2   3   4   5   6   7   7   6   5   4   3   4   5   6   7   8  
 7   6   5   4   3   2   3   4   5   6   6   5   4   3   2   1   2   3   4   5   5   4   3   2   1   0   1   2   3   4   6   5   4   3   2   1   2   3   4   5   7   6   5   4   3   2   3   4   5   6   8   7   6   5   4   3   4   5   6   7  
 8   7   6   5   4   3   2   3   4   5   7   6   5   4   3   2   1   2   3   4   6   5   4   3   2   1   0   1   2   3   7   6   5   4   3   2   1   2   3   4   8   7   6   5   4   3   2   3   4   5   9   8   7   6   5   4   3   4   5   6  
 9   8   7   6   5   4   3   2   3   4   8   7   6   5   4   3   2   1   2   3   7   6   5   4   3   2   1   0   1   2   8   7   6   5   4   3   2   1   2   3   9   8   7   6   5   4   3   2   3   4  10   9   8   7   6   5   4   3   4   5  
10   9   8   7   6   5   4   3   2   3   9   8   7   6   5   4   3   2   1   2   8   7   6   5   4   3   2   1   0   1   9   8   7   6   5   4   3   2   1   2  10   9   8   7   6   5   4   3   2   3  11  10   9   8   7   6   5   4   3   4  
11  10   9   8   7   6   5   4   3   2  10   9   8   7   6   5   4   3   2   1   9   8   7   6   5   4   3   2   1   0  10   9   8   7   6   5   4   3   2   1  11  10   9   8   7   6   5   4   3   2  12  11  10   9   8   7   6   5   4   3  
 3   4   5   6   7   8   9  10  11  12   2   3   4   5   6   7   8   9  10  11   1   2   3   4   5   6   7   8   9  10   0   1   2   3   4   5   6   7   8   9   1   2   3   4   5   6   7   8   9  10   2   3   4   5   6   7   8   9  10  11  
 4   3   4   5   6   7   8   9  10  11   3   2   3   4   5   6   7   8   9  10   2   1   2   3   4   5   6   7   8   9   1   0   1   2   3   4   5   6   7   8   2   1   2   3   4   5   6   7   8   9   3   2   3   4   5   6   7   8   9  10  
 5   4   3   4   5   6   7   8   9  10   4   3   2   3   4   5   6   7   8   9   3   2   1   2   3   4   5   6   7   8   2   1   0   1   2   3   4   5   6   7   3   2   1   2   3   4   5   6   7   8   4   3   2   3   4   5   6   7   8   9  
 6   5   4   3   4   5   6   7   8   9   5   4   3   2   3   4   5   6   7   8   4   3   2   1   2   3   4   5   6   7   3   2   1   0   1   2   3   4   5   6   4   3   2   1   2   3   4   5   6   7   5   4   3   2   3   4   5   6   7   8  
 7   6   5   4   3   4   5   6   7   8   6   5   4   3   2   3   4   5   6   7   5   4   3   2   1   2   3   4   5   6   4   3   2   1   0   1   2   3   4   5   5   4   3   2   1   2   3   4   5   6   6   5   4   3   2   3   4   5   6   7  
 8   7   6   5   4   3   4   5   6   7   7   6   5   4   3   2   3   4   5   6   6   5   4   3   2   1   2   3   4   5   5   4   3   2   1   0   1   2   3   4   6   5   4   3   2   1   2   3   4   5   7   6   5   4   3   2   3   4   5   6  
 9   8   7   6   5   4   3   4   5   6   8   7   6   5   4   3   2   3   4   5   7   6   5   4   3   2   1   2   3   4   6   5   4   3   2   1   0   1   2   3   7   6   5   4   3   2   1   2   3   4   8   7   6   5   4   3   2   3   4   5  
10   9   8   7   6   5   4   3   4   5   9   8   7   6   5   4   3   2   3   4   8   7   6   5   4   3   2   1   2   3   7   6   5   4   3   2   1   0   1   2   8   7   6   5   4   3   2   1   2   3   9   8   7   6   5   4   3   2   3   4  
11  10   9   8   7   6   5   4   3   4  10   9   8   7   6   5   4   3   2   3   9   8   7   6   5   4   3   2   1   2   8   7   6   5   4   3   2   1   0   1   9   8   7   6   5   4   3   2   1   2  10   9   8   7   6   5   4   3   2   3  
12  11  10   9   8   7   6   5   4   3  11  10   9   8   7   6   5   4   3   2  10   9   8   7   6   5   4   3   2   1   9   8   7   6   5   4   3   2   1   0  10   9   8   7   6   5   4   3   2   1  11  10   9   8   7   6   5   4   3   2  
 4   5   6   7   8   9  10  11  12  13   3   4   5   6   7   8   9  10  11  12   2   3   4   5   6   7   8   9  10  11   1   2   3   4   5   6   7   8   9  10   0   1   2   3   4   5   6   7   8   9   1   2   3   4   5   6   7   8   9  10  
 5   4   5   6   7   8   9  10  11  12   4   3   4   5   6   7   8   9  10  11   3   2   3   4   5   6   7   8   9  10   2   1   2   3   4   5   6   7   8   9   1   0   1   2   3   4   5   6   7   8   2   1   2   3   4   5   6   7   8   9  
 6   5   4   5   6   7   8   9  10  11   5   4   3   4   5   6   7   8   9  10   4   3   2   3   4   5   6   7   8   9   3   2   1   2   3   4   5   6   7   8   2   1   0   1   2   3   4   5   6   7   3   2   1   2   3   4   5   6   7   8  
 7   6   5   4   5   6   7   8   9  10   6   5   4   3   4   5   6   7   8   9   5   4   3   2   3   4   5   6   7   8   4   3   2   1   2   3   4   5   6   7   3   2   1   0   1   2   3   4   5   6   4   3   2   1   2   3   4   5   6   7  
 8   7   6   5   4   5   6   7   8   9   7   6   5   4   3   4   5   6   7   8   6   5   4   3   2   3   4   5   6   7   5   4   3   2   1   2   3   4   5   6   4   3   2   1   0   1   2   3   4   5   5   4   3   2   1   2   3   4   5   6  
 9   8   7   6   5   4   5   6   7   8   8   7   6   5   4   3   4   5   6   7   7   6   5   4   3   2   3   4   5   6   6   5   4   3   2   1   2   3   4   5   5   4   3   2   1   0   1   2   3   4   6   5   4   3   2   1   2   3   4   5  
10   9   8   7   6   5   4   5   6   7   9   8   7   6   5   4   3   4   5   6   8   7   6   5   4   3   2   3   4   5   7   6   5   4   3   2   1   2   3   4   6   5   4   3   2   1   0   1   2   3   7   6   5   4   3   2   1   2   3   4  
11  10   9   8   7   6   5   4   5   6  10   9   8   7   6   5   4   3   4   5   9   8   7   6   5   4   3   2   3   4   8   7   6   5   4   3   2   1   2   3   7   6   5   4   3   2   1   0   1   2   8   7   6   5   4   3   2   1   2   3  
12  11  10   9   8   7   6   5   4   5  11  10   9   8   7   6   5   4   3   4  10   9   8   7   6   5   4   3   2   3   9   8   7   6   5   4   3   2   1   2   8   7   6   5   4   3   2   1   0   1   9   8   7   6   5   4   3   2   1   2  
13  12  11  10   9   8   7   6   5   4  12  11  10   9   8   7   6   5   4   3  11  10   9   8   7   6   5   4   3   2  10   9   8   7   6   5   4   3   2   1   9   8   7   6   5   4   3   2   1   0  10   9   8   7   6   5   4   3   2   1  
 5   6   7   8   9  10  11  12  13  14   4   5   6   7   8   9  10  11  12  13   3   4   5   6   7   8   9  10  11  12   2   3   4   5   6   7   8   9  10  11   1   2   3   4   5   6   7   8   9  10   0   1   2   3   4   5   6   7   8   9  
 6   5   6   7   8   9  10  11  12  13   5   4   5   6   7   8   9  10  11  12   4   3   4   5   6   7   8   9  10  11   3   2   3   4   5   6   7   8   9  10   2   1   2   3   4   5   6   7   8   9   1   0   1   2   3   4   5   6   7   8  
 7   6   5   6   7   8   9  10  11  12   6   5   4   5   6   7   8   9  10  11   5   4   3   4   5   6   7   8   9  10   4   3   2   3   4   5   6   7   8   9   3   2   1   2   3   4   5   6   7   8   2   1   0   1   2   3   4   5   6   7  
 8   7   6   5   6   7   8   9  10  11   7   6   5   4   5   6   7   8   9  10   6   5   4   3   4   5   6   7   8   9   5   4   3   2   3   4   5   6   7   8   4   3   2   1   2   3   4   5   6   7   3   2   1   0   1   2   3   4   5   6  
 9   8   7   6   5   6   7   8   9  10   8   7   6   5   4   5   6   7   8   9   7   6   5   4   3   4   5   6   7   8   6   5   4   3   2   3   4   5   6   7   5   4   3   2   1   2   3   4   5   6   4   3   2   1   0   1   2   3   4   5  
10   9   8   7   6   5   6   7   8   9   9   8   7   6   5   4   5   6   7   8   8   7   6   5   4   3   4   5   6   7   7   6   5   4   3   2   3   4   5   6   6   5   4   3   2   1   2   3   4   5   5   4   3   2   1   0   1   2   3   4  
11  10   9   8   7   6   5   6   7   8  10   9   8   7   6   5   4   5   6   7   9   8   7   6   5   4   3   4   5   6   8   7   6   5   4   3   2   3   4   5   7   6   5   4   3   2   1   2   3   4   6   5   4   3   2   1   0   1   2   3  
12  11  10   9   8   7   6   5   6   7  11  10   9   8   7   6   5   4   5   6  10   9   8   7   6   5   4   3   4   5   9   8   7   6   5   4   3   2   3   4   8   7   6   5   4   3   2   1   2   3   7   6   5   4   3   2   1   0   1   2  
13  12  11  10   9   8   7   6   5   6  12  11  10   9   8   7   6   5   4   5  11  10   9   8   7   6   5   4   3   4  10   9   8   7   6   5   4   3   2   3   9   8   7   6   5   4   3   2   1   2   8   7   6   5   4   3   2   1   0   1  
14  13  12  11  10   9   8   7   6   5  13  12  11  10   9   8   7   6   5   4  12  11  10   9   8   7   6   5   4   3  11  10   9   8   7   6   5   4   3   2  10   9   8   7   6   5   4   3   2   1   9   8   7   6   5   4   3   2   1   0  

 0   0   0   0   0   0  24   0   0   0   0   0   0   0   0  13   0   9   0   0   0  25   0   1   0   1   0   0  12   0   0   0   1   0   0   1   0   0   0   0   0   0   1   0   0   0  13   1   0   0   0   0   0   0   0   1   0  42   0   0  
 0   0   0   0   0   0   0   0   0   0   0   0   0   0   0   0   0   0   0   0  39   0   1   0   0   0   0   0   0   0   0   0   0   0   0   0   0   0   0   0  22  77   1   0   0   0   8   1   0   0   0   0   0  53   0   0   0   1  10   0  
 0   0   0   0  98   0   0   1   0   0   1   0  10   0   0   0   0   0   9   0   0   0   0   0   0   0   0   0   0  64   0  91   0   0   0   0   0   0   0   0   0   0   0   0  12   0   0   0   0  89   0   0   0   0  95   0   0   0   0   4  
 0   0   0   0   0   0   0   0   5   0   0   0   0  43   0   0   0   0   0   0   0   0   8   0   0   0  52  26   9   0   0   0  78   0   0   0   0   0   0   0   0   0   0  28   0   0   0   8   0   0   0  11   0  47   0   0   9   0   0   0  
 0   0  25   0   0   0   0   1   0  91  98   1   8   0   0   0   1   0   0   0   0   0   0   0   2   7   0   0   0  95  88   0   0   0  51   0   0   0   0  14   0   0   0   0  67   0   0   0   0   5  23   0   0   0   1   0   0   0   0   5  
 0   0   0   0   0   0   1   0   0   0   0   0   0   0  97   1   0   0   0   0   0  33   0   4   0   0   0   0   0   0   0   0   0  44   0   0  63  26  15   0   0   0   0   0   0   5   0   0   1   0   0   0   0   0   0  10   0   0   0   0  
31   0   0   0   0   1   0   0   0   0   0   0   0   0   0   1   0   9   0   0   0  15   0  39   0   1   0   0  59   0   0   0  13   0   0  64   0   0   0   0   0   0   1   0   0   0   1   1   0   0   0   0   0   0   0  12   0   1   0  18  
 0   0   4   0   1   0   0   0   0   0  23   3   1   0   0   0   0   0   0   0   0   0   0   0   5  78   0   0   0   0   8   1   0   0   0   0   0   0   0  73   0   0   0   0   0   0   0   0  25   1   6   0   0   0   1  11   0   0   0  79  
 0   0   0  15   0   0   0   0   0   0   0   0   0   1   0   0   0   0   0   0  42   0   1   0   0   0  32   0  34   0   0   0   4   0   0   0   0   0   0   0   0  10  58   9   0   0   1   4   0   0   0   1   0  26   0   0   0  40  75   0  
 0   0   0   0   8   0   0   0   0   0   0  17   0   0   0   0   1   0   0  27   0   0   0   0  13   0   0   0   0   0   1   0   0   0  27   0   0   0   0  33   0   0   0   0   0   0   0   0   0   0  70   0   6   0   2   0   0   0   0   0  
 0   0   1   0   2   0   0   1   0   0   0   1  58   0   0   0   0   0   1   0   0   0   0   0   0   0   0   0   0   1   0   1   0   0   0   0   0   0   0   0   0   0   0   0  21   0   0   0   0   2   0   0   0   0  39   0   0   0   0   4  
 0   0   0   0   1   0   0   9   0  20   1   0   1   0   0   0  67   0   0   0   0   0   0   0   1  61   0   0   0  90   3   0   0   0  34   0   0   0   0   1   0   0   0   0  18   0   0   0   0   1  14   0  28   0   9   0   0   0   0  27  
 0   0  42   0   1   0   0  37   0   0   8   1   0   0   0   0   0   0   1   0   0   0   0   0   1   1   0   0   0   1   0  90   0   0   0   0   0   0   0   0   0   0   0   0  13   0   0   0   0  20   0   0   0   0   1   0   0   0   0   1  
 0   0   0  78   0   0   0   0   1   0   0   0   0   0   0   0   0   0   0  14   0   0   0   0   0   0  40  65  18   0   0   0  55   0   0   0   0   0   0   0   0   0   0  49   0   0   0  50   0   0   0  17   1   0   0   0  65   0   0   0  
 0   0   0   0   0  44   0   0   0   0   0   0   0   0   0   1   0   0   0   0   0   0   0   1   0   0   0   0   0   0   0   0   0   1   0   0   2  17   1   0   0   0   0   0   0  11   0   0  87   0   0   0   0   0   0  23   0   0   0   0  
60   0   0   0   0   3   1   0   0   0   0   0   0   0  61   0   0  11   0   0   0  35   0  76   0   0   0   0   0   0   0   0   0   1   0   4   0   0  27   0   0   0   0   0   0   8   6   0   0   0   0   0   0   0   0  16   0   0   0   0  
 0   0   0   0   8   0   0   0   0  42   0  94   0   0   0   0   0   0  32   0   0   0   0   0  23   0   0   0   0   4   1   0   0   0   1   0   0   0   0  28   0   0   0   0  79   0   0   0   0   1  94   0   0   0   1   0   0   0   0   0  
12   0   0   0   0   0   8   0   0   0   0   0   0   0   0  29   0   0   0   0  62   6   0   1   0   0   0   0   0   0   0   0   0   4   0  65   0   0   0   0   0   0   1   0   0   0  22   6   0   0   0   0   0   0   0   0   0  12   0   0  
 0   0  66   0   0   0   0   0   0   0   1   0  26   0   0   0   1   0   0   0   0   0   0   0   0   0   0   0   0  25   0   0   0   0   0   0   0   0   0   0   0   0   0   0  65   0   0   0   0   1   0   0   0   0   0   0   0   0   0   0  
 0   0   0   0   0   0   0   0   0  75   0   0   0  83   0   0   0   0   0   0   0   0   0   0   0   0   0   1   0   0   0   0   1   0  13   0   0   0   0   0   0   0   0   0   0   0   0   0   0   0   0  26  72   0   0   0   0   0   0   0  
 0  25   0   0   0   0   0   0   6   0   0   0   0   0   0   0   0  19   0   0   0   0  65   0   0   0   1   0   1   0   0   0   0   0   0   5   0   0   0   0  43   1   1   0   0   0  38   1   0   0   0   0   0   1   0   0   0  69  42   0  
32   0   0   0   0   1  84   0   0   0   0   0   0   0   0   1   0  96   0   0   0   0   0   4   0   0   0   0   0   0   0   0   0  30   0   1   0   0   0   0   0   0  31   0   0   0  71   0   0   0   0   0   0   0   0   0   0  63   0   0  
 0   2   0   1   0   0   0   0  67   0   0   0   0   0   0   0   0   0   0   0  20   0   0   0   0   0   1   0  43   0   0   0   0   0   0  70   0   0   0   0  44  68  14   0   0   0  44   1   0   0   0   0   0   1   0   0   0   1   6   0  
55   0   0   0   0  36  20   0   0   0   0   0   0   0  58   1   0   1   0   0   0  45   0   0   0   0   0   0   0   0   0   0   0   8   0   6   0   1   2   0   0   0   0   0   0  56   0   0  13   0   0   0   0   0   0   1   0   0   0   0  
 0   0   0   0  39   0   0   1   0   1   0   9  14   0   0   0   1   0   0   0   0   0   0   0   0  96   0   0   0   0   3  33   0   0  79   0   0   0   0   1   0   0   0   0   0   0   0   0   0   0   9   0   0   0  60  97   0   0   0   1  
31   0   0   0   7   0   1   2   0   0   0   1   4   0   0   0   0   0   0   0   0   0   0   0   1   0   0   0   0   0  87   3   0   0   0   0   0   0   0   2   0   0   0   0   0   0   0   0   1   0  28   0   0   0   1   1   0   0   0  72  
 0   0   0  69   0   0   0   0  44   0   0   0   0   4   0   0   0   0   0   0   1   0  12   0   0   0   0   0  94   0   0   0   1   0   0   0   0   0   0   0   0   8   1  16   0   0   0  11   0   0   0   1   0   2   0   0   0   1  94   0  
 0   0   0  60   0   0   0   0   0   0   0   0   0   3   0   0   0   0   0  44   0   0   0   0   0   0   0   0   0   0   0   0   1   0   0   0   0   0   0   0   0   0   0  26   0   0   0   0   0   0   0   1  30   0   0   0   4   0   0   0  
26   0   0  94   0   0  42   0  26   0   0   0   0   2   0   0   0   0   0   0   4   0   1   0   0   0   1   0   0   0   0   0  46   0   0  56   0   0   0   0   0   0   1   0   0   0   1   2   0   0   0   1   0  39   0   0   0   9   6   0  
 0   0   1   0   1   0   0   0   0   0  30   1   3   0   0   0   1   0  62   0   0   0   0   0   0   0   0   0   0   0  99   0   0   0   0   0   0   0   0   0   0   0   0   0   1   0   0   0   0  35   0   0   0   0   1   0   0   0   0   0  
 0   0   0   0   1   0   0  75   0   1   0   1   0   0   0   0   1   0   0   0   0   0   0   0   2  97   0   0   0  19   0   0   0   0   1   0   0   0   0   1   0   0   0   0  19   0   0   0   0   0  36   0   1   0  98   0   0   0   0  84  
 0   0   1   0   0   0   0  24   0   0   7   0   5   0   0   0   0   0   0   0   0   0   0   0  21   5   0   0   0   0   0   0   0   0   0   0   5   0   0   0   0   0   0   0   0   0   0   0  53   0   0   0   0   0  26  12   0   0   0  24  
35   0   0  59   0   0   1   0   1   0   0   0   0   1   0   0   0   0   0   1   0   0   0   0   0   0   6   1  74   0   0   0   0   0   0   5   0   0   0   0   0   0   0   0   0   0   0  41   0   0   0  50   0  15   0   0   0   0   0   0  
 0   0   0   0   0   3   0   0   0   0   0   0   0   0  42  61   0  39   0   0   0   1   0   3   0   0   0   0   0   0   0   0   0   0   0   0   0  25  32   0   0   0   0   0   0  16   0   0   0   0   0   0   0   0   0   0   0   0   0   0  
 0   0   0   0  37   0   0   0   0   1   0   3   0   0   0   0   1   0   0   8   0   0   0   0  21   0   0   0   0   0  58   0   0   0   0   0   0   0   0  10   0   0   0   0   0   0   0   0   0   0  27   0  83   0   1   0   0   0   0   0  
53   0   0   0   0   0   1   0   0   0   0   0   0   0   0  39   0   1   0   0  18   5  10  18   0   0   0   0  36   0   0   0   7   0   0   0   0   0   0   0   0   0   1   0   0   0  16   1   0   0   0   0   0  15   0   0   0   5   0   0  
 0   0   0   0   0   1   0   0   0   0   0   0   0   0   1   0   0   0   0   0   0   0   0   0   0   0   0   0   0   0   0  26   0   0   0   0   0   4  28   0   0   0   0   0   0  73   0   0  20   0   0   0   0   0   0  16   0   0   0  16  
 0   0   0   0   0  76   0   0   0   0   0   0   0   0  10   0   0   0   0   0   0   0   0   1   0   0   0   0   0   0   0   0   0   1   0   0  13   0  29   0   0   0   0   0   0   4   0   0  19   0   0   0   0   0   0   0   0   0   0   0  
 0   0   0   0   0   1   0   0   0   0   0   0   0   0  95   1   0   0   0   0   0   0   0   1   0   0   0   0   0   0   0   0   0   1   0   0   1  17   0   0   0   0   0   0   0   1   0   0   8   0   0   0   0   0   0   0   0   0   0   0  
 0   0   0   0   4   0   0   5   0  20   0   1   0   0   0   0   1   0   0   0   0   0   0   0   1  73   0   0   0   0  25   0   0   0   1   0   0   0   0   0   0   0   0   0   0   0   0   0   0   0   1   0   1   0   2   0   0   0   0  29  
 0   1   0   0   0   0   0   0   0   0   0   0   0   0   0   0   0   0   0   0   1   0   1   0   0   0   0   0   0   0   0   0   0   0   0   0   0   0   0   0   0   1  37   0   0   0   0   0   0   0   0   0   0   1   0   0   0   1  25   0  
 0   8   0   0   0   0   0   0  65   0   0   0   0   0   0   0   0   0   0   0   1   0  13   0   0   0  41   0   0   0   0   0   0   0   0   0   0   0   0   0  12   0   0   0   0   0   0   0   0   0   0   0   0  33   0   0   0   0   1   0  
 1  26   0   0   0   0  50   0   3   0   0   0   0   0   0   0   0   1   0   0  47  67  34   0   0   0  20   0  58   0   0   0   0   0   0   1   0   0   0   0  13   0   0   0   0   0   3   2   0   0   0   0   0   6   0   0   0   3   1   0  
 0   0   0  11   0   0   0   0   2   0   0   0   0   1   0   0   0   0   0   0   0   0   0   0   0   0   2  30   0   0   0   0   0   0   0   0   0   0   0   0   0   0   0   0   0   0   0   0   0   0   0   1   0   0   0   0  13   0   0   0  
 0   0  29   0   2   0   0   0   0   0   1   1   1   0   0   0   2   0   1   0   0   0   0   0   0   0   0   0   0   1  50   0   0   0   0   0   0   0   0   0   0   0   0   0   0   0   0   0   0   1   0   0   0   0  14   0   0   0   0   0  
 0   0   0   0   0   1   0   0   0   0   0   0   0   0   9   1   0   0   0   0   0   0   0  23   0   0   0   0   0   0   0   0   0   1   0   0  38   4   1   0   0   0   0   0   0   0   0   0   1   0   0   0   0   0   0   1   0   0   0   0  
60   1   0   0   0   0  29   0  10   0   0   0   0   0   0   1   0  56   0   0   1   1   1   0   0   0   0   0   1   0   0   0   0   0   0   1   0   0   0   0   0   0   6   0   0   0   0   3   0   0   0   0   0  28   0   0   0  35   1   0  
 1  37   0  48   0   0   1   0  49   0   0   0   0  50   0   0   0   1   0   0  22   0  39   0   0   0  65   0  27   0   0   0  20   0   0  39   0   0   0   0   0   0   5   0   0   0   2   0   0   0   0   0   0   1   0   0   0   4   1   0  
 0   0   0   0   0   1   0  35   0   0   0   0   0   0  38   0   0   0   0   0   0   0   0  29   0   4   0   0   0   0   0   4   0   0   0   0   4  11   1   0   0   0   0   0   0  98   0   0   0   0   0   0   0   0   0  35   0   0   0  18  
 0   0   1   0  20   0   0  37   0   0  62  10  58   0   0   0  34   0   7   0   0   0   0   0   0   0   0   0   0  14   0   0   0   0   0   0   0   0   0   0   0   0   0   0  17   0   0   0   0   0   0   0   0   0  36   0   0   0   0   0  
 0   0   0   0  15   0   0  43   0  90   0   4   0   0   0   0  32   0   0   0   0   0   0   0  83   9   0   0   0   0  38   0   0   0  66   0   0   0   0  96   0   0   0   0   0   0   0   0   0   0   0   0  27   0   4   0   0   0   0  93  
 0   0   0  11   0   0   0   0   1   0   0   0   0   1   0   0   0   0   0  78   0   0   0   0   0   0   6   1  79   0   0   0  49   0   0   0   0   0   0   0   0   0   0   1   0   0   0   0   0   0   0   0   0   1   0   0   1   0   0   0  
 0   0   0   0   0   0   0   0   0  43   0  16   0   1   0   0   0   0   0  32   0   0   0   0   0   0   0   1   0   0  25   0   0   0  26   0   0   0   0   5   0   0   0   0   0   0   0   0   0   0  51   0   0   0   0   0   0   0   0   0  
 0   1   0  38   0   0   0   0   4   0   0   0   0   0   0   0   0   0   0   0  99   0   1   0   0   0  37   0  38   0   0   0   4   0   0  16   0   0   0   0  43  35  26   0   0   0   1  16   0   0   0   4   0   0   0   0   0   3   2   0  
 0   0  67   0   4   0   0  98   0  90  15   1   1   0   0   0   1   0   0   0   0   0   0   0   1  59   0   0   0  63   3   1   0   0   1   0   0   0   0   8   0   0   0   0   1   0   0   0   0   8   1   0   0   0   0   0   0   0   0   2  
 1   0   0   0   0   1   6   1   0   0   0   0   0   0  14  44   0   0   0   0   0   0   0   1  10   1   0   0   0   0   0  68   0   0   0   0   4   0   0   0   0   0   0   0   0  22   0   0  41   0   0   0   0   0   0   0   0   0   0   1  
 0   0   0  88   0   0   0   0   0   0   0   0   0   1   0   0   0   0   0   0   0   0   0   0   0   0   0   1   0   0   0   0   0   0   0   0   0   0   0   0   0   0   0  99   0   0   0   0   0   0   0  20   0   0   0   0   0   0   0   0  
68   1   0   0   0   0  41   0   1   0   0   0   0   0   0   0   0  22   0   0  32  45   2   0   0   0  21   0  46   0   0   0   0   0   0   3   0   0   0   0   2   0  10   0   0   0   2   1   0   0   0   0   0   4   0   0   0   0  20   0  
 0   7   0   0   0   0   0   0   3   0   0   0   0   0   0   0   0   0   0   0   1   0  13   0   0   0   6   0   1   0   0   0   0   0   0   0   0   0   0   0   1  55   7   0   0   0  61   1   0   0   0   0   0  22   0   0   0   1   0   0  
 0   0   5   0   8   0   1   3   0   0  22   3  24   0   0   0   0   0   0   0   0   0   0   0  78  77   0   0   0   0  26   1   0   0   0   0   1   0   0  10   0   0   0   0   0   0   0   0   1   0   1   0   0   0   1   1   0   0   0   0  
